job_count = 22 ;
duration = [|15, 2|16, 7|19, 7|6, 8|17, 3|16, 4|13, 3|16, 2|17, 5|3, 5|2, 4|10, 9|2, 7|2, 5|17, 1|6, 3|19, 6|7, 7|18, 5|14, 4|4, 1|9, 6|] ;
machine_count = 2 ;
cost = [|10, 24|19, 39|14, 30|14, 26|11, 39|17, 21|14, 38|11, 33|19, 34|13, 22|17, 33|10, 24|15, 30|18, 35|10, 36|18, 27|16, 30|16, 25|19, 22|16, 32|19, 32|10, 30|] ;
deadline = [55, 55, 55, 55, 55, 55, 55, 55, 55, 55, 55, 55, 55, 55, 55, 55, 55, 55, 55, 55, 55, 55] ;
release = [0, 0, 0, 0, 0, 0, 0, 0, 0, 0, 0, 0, 0, 0, 0, 0, 0, 0, 0, 0, 0, 0] ;
resource = [|3, 3|8, 8|1, 1|8, 8|8, 8|2, 2|3, 3|6, 6|7, 7|8, 8|7, 7|8, 8|4, 4|8, 8|3, 3|5, 5|8, 8|9, 9|5, 5|9, 9|5, 5|4, 4|] ;
capacities = [10, 10] ;
